c pcminimize - minimizing a CNF with respect to propagation completeness by iterative removing of absorbed clauses.
c Petr Kucera, 2016-2021
c Version 2.7, revision 59, git hash 4910a71, date 2024-07-16 20:17:42 +0200
p cnf 494 1000
170 -252 0
251 -252 0
252 -253 0
78 -253 0
254 -255 0
255 -256 0
-78 -256 0
253 256 -257 0
-117 -258 0
155 -258 0
259 -260 0
-155 -260 0
258 260 -261 0
142 -262 0
-232 -262 0
257 -263 0
261 -263 0
262 -263 0
263 -264 0
240 -264 0
170 -265 0
78 -265 0
254 -266 0
-78 -266 0
265 266 -267 0
267 -268 0
105 -268 0
268 -269 0
232 -269 0
257 -270 0
-232 -270 0
269 270 -271 0
271 -274 0
272 -274 0
259 -274 0
273 -274 0
274 -275 0
-240 -275 0
264 275 -276 0
277 -278 0
214 -278 0
57 -279 0
-214 -279 0
278 279 -280 0
280 -281 0
184 -281 0
281 -282 0
143 -282 0
283 -285 0
277 -285 0
284 -285 0
285 -286 0
-143 -286 0
282 286 -287 0
-203 -288 0
131 -288 0
289 -290 0
-131 -290 0
288 290 -291 0
276 -292 0
287 -292 0
291 -292 0
135 -292 0
292 -294 0
293 -294 0
294 -295 0
99 -295 0
257 -297 0
261 -297 0
262 -297 0
296 -297 0
297 -298 0
240 -298 0
271 -299 0
135 -299 0
257 -300 0
-232 -300 0
300 -301 0
-135 -301 0
299 301 -302 0
302 -303 0
272 -303 0
259 -303 0
273 -303 0
303 -304 0
-240 -304 0
298 304 -305 0
280 -306 0
143 -306 0
277 -307 0
284 -307 0
307 -308 0
-143 -308 0
306 308 -309 0
309 -310 0
291 -310 0
310 -311 0
184 -311 0
-143 -312 0
203 -312 0
277 -313 0
284 -313 0
312 -314 0
313 -314 0
314 -315 0
-184 -315 0
311 315 -316 0
305 -317 0
316 -317 0
-14 -317 0
317 -318 0
-99 -318 0
295 318 -319 0
64 -320 0
-144 -320 0
-241 -320 0
320 -321 0
148 -321 0
322 -323 0
144 -323 0
-241 -324 0
-144 -324 0
323 324 -325 0
64 -326 0
327 -328 0
-64 -328 0
326 328 -329 0
325 -330 0
329 -330 0
330 -331 0
-148 -331 0
321 331 -332 0
3 -333 0
-5 -333 0
13 -333 0
15 -333 0
-19 -333 0
22 -333 0
-30 -333 0
-36 -333 0
38 -333 0
40 -333 0
-41 -333 0
43 -333 0
-44 -333 0
-48 -333 0
53 -333 0
66 -333 0
69 -333 0
74 -333 0
76 -333 0
86 -333 0
-89 -333 0
92 -333 0
-93 -333 0
95 -333 0
-97 -333 0
-115 -333 0
120 -333 0
124 -333 0
-130 -333 0
136 -333 0
-146 -333 0
-150 -333 0
160 -333 0
161 -333 0
-165 -333 0
173 -333 0
-175 -333 0
-176 -333 0
-190 -333 0
195 -333 0
-196 -333 0
198 -333 0
200 -333 0
204 -333 0
206 -333 0
-207 -333 0
-210 -333 0
219 -333 0
-220 -333 0
-224 -333 0
228 -333 0
-234 -333 0
-237 -333 0
-239 -333 0
242 -333 0
249 -333 0
250 -333 0
334 -337 0
335 -337 0
336 -337 0
319 -338 0
332 -338 0
333 -338 0
337 -338 0
338 -339 0
-29 -339 0
339 -341 0
340 -341 0
341 -342 0
183 -343 0
342 -344 0
343 -344 0
344 -345 0
345 -346 0
-75 -346 0
346 -347 0
199 -347 0
348 -350 0
349 -350 0
-203 -351 0
350 -351 0
351 -352 0
48 -352 0
289 -353 0
349 -353 0
353 -354 0
93 -354 0
289 -355 0
204 -355 0
-203 -356 0
-204 -356 0
355 356 -357 0
357 -358 0
-93 -358 0
354 358 -359 0
359 -360 0
-48 -360 0
352 360 -361 0
334 -362 0
250 -362 0
-9 -363 0
-250 -363 0
362 363 -364 0
184 -366 0
365 -366 0
366 -367 0
176 -367 0
283 -368 0
368 -369 0
-176 -369 0
367 369 -370 0
293 -371 0
72 -371 0
14 -372 0
-72 -372 0
371 372 -373 0
-5 -374 0
-57 -374 0
-64 -374 0
-74 -374 0
105 -374 0
-131 -374 0
-135 -374 0
-142 -374 0
-143 -374 0
144 -374 0
150 -374 0
155 -374 0
170 -374 0
-190 -374 0
-200 -374 0
-206 -374 0
214 -374 0
-232 -374 0
-240 -374 0
375 -379 0
376 -379 0
322 -379 0
377 -379 0
378 -379 0
259 -379 0
361 -380 0
364 -380 0
370 -380 0
373 -380 0
374 -380 0
379 -380 0
380 -381 0
210 -381 0
-5 -382 0
-57 -382 0
-64 -382 0
-74 -382 0
105 -382 0
-131 -382 0
-135 -382 0
-142 -382 0
-143 -382 0
144 -382 0
150 -382 0
155 -382 0
170 -382 0
-190 -382 0
-200 -382 0
-206 -382 0
214 -382 0
-232 -382 0
-240 -382 0
375 -383 0
376 -383 0
322 -383 0
377 -383 0
378 -383 0
259 -383 0
361 -384 0
364 -384 0
370 -384 0
373 -384 0
382 -384 0
383 -384 0
384 -385 0
385 -387 0
386 -387 0
387 -388 0
-210 -388 0
381 388 -389 0
389 -390 0
390 -392 0
391 -392 0
392 -393 0
78 -394 0
393 -395 0
394 -395 0
395 -396 0
396 -398 0
397 -398 0
398 -399 0
399 -400 0
-199 -400 0
401 -403 0
169 -407 0
-14 -408 0
72 -408 0
408 -409 0
190 -409 0
373 -410 0
-190 -410 0
409 410 -411 0
361 -412 0
411 -412 0
412 -413 0
113 -413 0
-203 -414 0
48 -414 0
289 -415 0
-48 -415 0
414 415 -416 0
-14 -417 0
72 -417 0
93 -417 0
190 -417 0
416 -418 0
417 -418 0
349 -418 0
418 -419 0
-113 -419 0
413 419 -420 0
-5 -421 0
-74 -421 0
-200 -421 0
-206 -421 0
420 -422 0
364 -422 0
421 -422 0
375 -422 0
422 -423 0
150 -423 0
424 -425 0
72 -425 0
-5 -426 0
-72 -426 0
425 426 -427 0
74 -428 0
250 -428 0
427 -429 0
428 -429 0
334 -429 0
429 -430 0
200 -430 0
364 -431 0
-5 -431 0
336 -431 0
431 -433 0
432 -433 0
433 -434 0
-200 -434 0
430 434 -435 0
435 -436 0
14 -436 0
200 -437 0
5 -437 0
438 -439 0
-5 -439 0
437 439 -440 0
440 -441 0
74 -441 0
-5 -442 0
-200 -442 0
442 -443 0
-74 -443 0
441 443 -444 0
444 -445 0
334 -445 0
445 -446 0
250 -446 0
-5 -447 0
-9 -447 0
-200 -447 0
447 -448 0
432 -448 0
448 -449 0
-250 -449 0
446 449 -450 0
450 -451 0
72 -451 0
451 -452 0
-14 -452 0
436 452 -453 0
175 -454 0
122 -454 0
375 -455 0
-122 -455 0
454 455 -456 0
453 -457 0
456 -457 0
457 -460 0
458 -460 0
459 -460 0
460 -461 0
206 -461 0
-5 -462 0
-74 -462 0
-200 -462 0
411 -463 0
364 -463 0
462 -463 0
375 -463 0
463 -464 0
-206 -464 0
461 464 -465 0
465 -466 0
361 -466 0
466 -467 0
-150 -467 0
423 467 -468 0
-57 -469 0
-64 -469 0
105 -469 0
-135 -469 0
-142 -469 0
-143 -469 0
144 -469 0
155 -469 0
170 -469 0
214 -469 0
-232 -469 0
-240 -469 0
322 -472 0
376 -472 0
470 -472 0
377 -472 0
378 -472 0
259 -472 0
471 -472 0
370 -473 0
468 -473 0
472 -473 0
475 -476 0
78 -478 0
-131 -478 0
-169 -486 0
487 -488 0
1 0
-2 0
4 0
6 0
7 0
-8 0
-10 0
11 0
-16 0
-17 0
-18 0
-20 0
-21 0
-23 0
24 0
25 0
-26 0
27 0
-28 0
31 0
-32 0
-33 0
34 0
35 0
-37 0
39 0
42 0
-45 0
-46 0
-47 0
-49 0
50 0
-51 0
-52 0
-54 0
55 0
56 0
58 0
59 0
60 0
61 0
62 0
63 0
-65 0
-67 0
-70 0
71 0
73 0
77 0
-79 0
80 0
-81 0
82 0
-83 0
84 0
-85 0
87 0
88 0
-90 0
-91 0
-94 0
-96 0
-98 0
100 0
101 0
-102 0
103 0
104 0
106 0
-107 0
-108 0
109 0
-110 0
111 0
112 0
-114 0
-116 0
118 0
121 0
123 0
-125 0
126 0
-127 0
128 0
129 0
132 0
-133 0
134 0
137 0
138 0
139 0
140 0
141 0
-145 0
-147 0
-149 0
151 0
-152 0
-153 0
154 0
156 0
157 0
-158 0
159 0
-162 0
-164 0
-166 0
-167 0
168 0
172 0
-174 0
-177 0
-178 0
-179 0
180 0
-181 0
182 0
-185 0
-186 0
187 0
-188 0
-189 0
-191 0
-192 0
193 0
-194 0
-197 0
201 0
202 0
205 0
-208 0
-209 0
-211 0
-212 0
-213 0
215 0
216 0
-217 0
-218 0
221 0
222 0
-223 0
225 0
-226 0
227 0
-229 0
230 0
231 0
233 0
235 0
-236 0
-238 0
243 0
-244 0
245 0
246 0
-247 0
-248 0
-490 491 0
-151 488 0
-485 486 0
-479 480 0
-478 479 0
-477 479 0
-476 477 0
-475 476 0
-474 476 0
-473 474 0
-471 472 0
163 470 0
-469 473 0
-468 473 0
-466 467 0
-465 466 0
-463 464 0
-462 463 0
-460 461 0
-459 460 0
-482 483 0
-68 459 0
75 346 0
-36 376 0
165 333 0
-66 333 0
-299 302 0
-389 390 0
146 333 0
-408 409 0
-436 453 0
115 333 0
-394 395 0
-200 333 430 437 438 0
196 333 0
-297 298 0
-419 420 0
93 333 348 358 0
89 333 0
-86 333 0
-352 361 0
-430 435 0
-455 456 0
-353 354 0
-176 367 0
-378 379 383 472 0
-441 444 0
-40 333 0
-161 333 0
-69 333 0
-312 314 0
-72 336 371 408 417 425 451 0
-53 333 0
-445 446 0
-315 316 0
3 378 0
44 333 0
-43 333 0
-268 269 0
-175 375 454 0
-260 261 0
78 256 266 0
-448 449 0
-38 333 0
-170 252 254 265 374 382 469 0
-314 315 0
30 333 0
-369 370 0
-387 388 0
-250 333 362 428 446 0
-472 473 0
-95 333 0
19 333 0
-92 333 0
184 283 315 0
-360 361 0
-434 435 0
-456 457 0
130 333 0
-15 333 0
190 333 374 382 410 458 0
-13 333 0
-323 325 0
-449 450 0
-120 333 0
-155 258 273 374 382 469 0
-296 297 0
-173 333 0
-48 352 414 0
-406 407 0
64 328 374 382 469 0
-388 389 0
-493 494 0
-143 282 306 0
-184 281 283 311 366 0
-322 323 379 383 472 0
-424 425 0
-279 280 0
-277 278 285 307 313 0
-362 364 0
-57 277 279 0
-22 333 0
-325 330 0
-271 274 299 0
97 333 0
-190 409 417 458 0
-276 292 0
-275 276 0
240 275 304 374 382 469 0
-351 352 0
-291 292 310 0
143 286 308 312 374 382 469 0
-264 276 0
-232 269 0
170 254 0
-288 291 0
204 349 356 0
-274 275 0
144 320 324 0
-316 317 0
-76 333 0
36 333 376 0
-267 268 0
-124 333 0
145 493 0
-280 281 306 0
-420 422 0
-253 257 0
-438 439 0
-270 271 0
-256 257 0
-254 255 266 0
-375 379 383 422 455 463 0
-300 301 0
-117 259 0
-491 492 0
105 251 0
-198 333 0
232 262 270 300 374 382 469 0
-310 311 0
-332 338 0
-251 252 0
57 277 374 382 469 0
203 288 289 351 356 414 0
-327 328 0
214 279 284 0
-122 454 0
155 260 273 0
-135 292 296 299 0
-333 338 0
-319 338 0
-461 465 0
241 320 322 324 0
-252 253 0
-292 294 0
-317 318 0
-203 289 312 0
-414 416 0
-214 278 284 374 382 469 0
-308 309 0
-160 333 0
48 333 360 415 0
-294 295 0
-483 484 0
-377 379 383 472 0
-442 443 0
-142 262 272 0
-283 285 368 0
-392 393 0
-150 374 382 423 0
-467 468 0
117 258 259 0
-210 381 471 0
-262 263 297 0
-93 348 354 417 0
-311 316 0
-195 333 0
-285 286 0
-453 457 0
-454 456 0
-240 264 298 0
131 290 312 374 382 478 0
-370 380 384 473 0
-281 282 0
-373 380 384 410 0
-282 287 0
-119 327 0
-284 285 307 313 0
-371 373 0
-293 294 371 0
-287 292 0
-263 264 0
-131 288 0
-290 291 0
-488 489 0
-433 434 0
-355 357 0
-14 293 372 436 0
-417 418 0
-384 385 0
174 402 469 0
-426 427 0
14 293 317 408 417 452 0
-258 261 0
-257 263 270 297 300 0
-379 380 0
-295 319 0
-444 445 0
-309 310 0
-320 321 0
-428 429 0
-413 420 0
-302 303 0
-303 304 0
-329 330 0
-305 317 0
-255 256 0
-306 309 0
-401 403 0
-313 314 0
99 318 0
-318 319 0
-348 350 0
-74 333 428 432 441 0
-261 263 297 0
-349 350 353 418 0
-265 267 0
-334 337 362 429 445 0
-266 267 0
-206 333 461 0
-470 472 0
113 419 0
-148 321 0
79 490 0
-272 274 303 0
-321 332 0
-241 322 0
-144 323 374 382 469 0
-64 320 326 0
-3 333 378 0
-324 325 0
135 296 301 374 382 469 0
-298 305 0
-304 305 0
-330 331 0
-78 253 265 394 478 0
-269 271 0
-410 411 0
150 333 467 0
-331 332 0
175 333 375 0
-354 359 0
176 333 369 0
-278 280 0
-289 290 353 355 415 0
-383 384 0
-338 339 0
-204 333 349 355 0
207 333 0
-464 465 0
-418 419 0
-381 389 0
-219 333 0
220 333 0
224 333 0
-301 302 0
-228 333 0
234 333 0
237 333 0
239 333 0
-242 333 377 0
-249 333 0
142 272 374 382 469 0
-364 380 384 422 431 463 0
-9 334 0
-336 337 431 0
-183 343 0
9 334 363 447 0
-356 357 0
-12 335 0
41 333 0
-367 370 0
-335 337 0
72 336 372 426 0
-480 481 0
-345 346 0
-337 338 0
29 339 0
-339 341 0
-341 342 0
-136 333 0
-342 344 0
-396 398 0
-343 344 0
-344 345 0
-481 482 0
-346 347 0
-347 401 0
-350 351 0
-357 358 0
-273 274 303 0
-361 380 384 412 466 0
-359 360 0
-435 436 0
250 363 449 0
-411 412 463 0
-363 364 0
171 365 0
-422 423 0
-340 341 0
-447 448 0
-409 411 0
-366 367 0
-368 369 0
-372 373 0
-451 452 0
-457 460 0
-358 359 0
-452 453 0
-328 329 0
-382 384 0
-484 485 0
200 374 382 421 434 438 442 447 462 0
-397 398 0
206 374 382 421 464 0
-259 260 274 303 379 383 472 0
-374 380 0
-199 347 0
-376 379 383 472 0
242 377 0
-286 287 0
-380 381 0
-385 387 0
-386 387 0
-390 392 0
-391 392 0
-439 440 0
-393 395 0
-395 396 0
-398 399 0
-399 400 0
-405 406 0
-400 401 0
2 402 478 0
-402 403 0
-403 404 0
-307 308 0
-404 405 0
-365 366 0
-412 413 0
-415 416 0
-416 418 0
-421 422 0
-423 468 0
-326 329 0
-5 424 437 0
-425 427 0
-427 429 0
-429 430 0
-431 433 0
74 374 382 421 432 443 462 0
-432 433 448 0
-437 440 0
-440 441 0
-443 444 0
-446 450 0
-450 451 0
-458 460 0
